%nprocshared=4

# input

comment

0 1
1 2.830065 -2.774580 -0.580846
6 3.014500 -1.715925 -0.427564
6 3.537531 1.034289 0.010585
6 2.004643 -0.856105 -0.021712
6 4.295832 -1.192767 -0.617995
6 4.555704 0.169508 -0.398151
6 2.272810 0.508393 0.194537
1 5.105207 -1.847872 -0.932931
1 5.560243 0.557836 -0.550034
1 3.745932 2.087204 0.168535
6 0.568288 -1.181454 0.310402
6 -0.029994 0.254798 0.368376
1 -0.679511 0.371250 1.244942
7 1.089132 1.182186 0.529077
6 -0.750235 0.716930 -0.908331
1 0.016479 0.834776 -1.692787
6 -1.723066 -0.345252 -1.408427
1 -2.274525 0.006480 -2.288276
6 -0.842186 -1.539154 -1.823836
1 -0.043526 -1.222682 -2.506493
1 -1.431251 -2.278818 -2.381603
6 -0.242846 -2.165630 -0.563619
1 0.387024 -3.013778 -0.859212
7 -1.305289 -2.701448 0.333970
6 -0.926128 -2.414642 1.725523
1 -0.984710 -3.321914 2.335406
1 -1.577375 -1.665499 2.191634
6 0.495111 -1.878350 1.675206
1 1.204101 -2.715501 1.727219
1 0.710569 -1.211363 2.517471
6 0.866650 2.551620 0.545774
8 1.728123 3.421188 0.622156
6 -1.302515 2.137626 -0.699986
1 -1.026491 2.688569 -1.610358
6 -0.620033 2.900475 0.457562
1 -1.075401 2.688613 1.429702
1 -0.730603 3.979009 0.296423
8 -2.727877 2.192525 -0.712841
6 -2.690763 -0.760554 -0.314405
6 -3.407441 0.109563 0.424416
6 -3.440524 1.609606 0.364288
1 -4.486709 1.910187 0.238364
1 -3.112950 2.031339 1.318771
1 -4.036267 -0.294129 1.218004
6 -2.667216 -2.241042 0.011056
1 -3.352757 -2.492569 0.830478
1 -3.045142 -2.803033 -0.852455




