%nprocshared=4

# input

comment

0 1
6 4.007806 -1.093519 -0.769563
1 4.648240 -1.880147 -1.149045
6 3.029056 -1.321715 0.115865
1 2.886189 -2.342236 0.469134
6 2.117278 -0.253307 0.730187
6 4.271887 0.269974 -1.261894
6 3.335182 1.330256 -0.838618
6 2.346803 1.103388 0.047236
6 1.340258 2.203983 0.288869
1 0.852268 2.446829 -0.664131
1 1.860775 3.110219 0.623065
6 0.611685 -0.593973 0.658572
6 -0.395758 0.489377 1.088774
1 -0.824889 0.202408 2.057005
6 0.258894 1.864082 1.307271
1 -0.492159 2.661337 1.316929
1 0.693143 1.905514 2.311444
1 3.475900 2.289208 -1.325404
6 2.581081 -0.204635 2.208883
1 2.506409 -1.194152 2.678723
1 1.989794 0.463569 2.835374
1 3.626365 0.119761 2.291422
8 0.269143 -1.907645 1.149164
8 5.205775 0.508031 -2.016224
6 -1.520983 0.542648 0.040039
1 -1.055209 0.793254 -0.928189
6 -2.236817 -0.822712 -0.099512
6 -1.291136 -1.807802 -0.781264
1 -1.255666 -1.599037 -1.858579
1 -1.661114 -2.836120 -0.689727
6 0.116289 -1.732262 -0.259386
1 0.804880 -2.257876 -0.907476
6 -2.665772 1.536996 0.232690
1 -2.353814 2.571313 0.056368
1 -3.076639 1.481713 1.247039
6 -3.687382 1.099486 -0.831782
1 -3.443596 1.565234 -1.793729
6 -3.414030 -0.393082 -0.959413
8 -4.072879 -1.153584 -1.657179
6 -2.836371 -1.409216 1.190896
1 -3.411242 -2.316016 0.966107
1 -3.531005 -0.716567 1.677684
1 -2.078426 -1.684177 1.927776
6 -5.118634 1.396899 -0.432641
1 -5.813373 1.070812 -1.213906
1 -5.263668 2.469989 -0.273153
1 -5.395475 0.871571 0.487930




