%nprocshared=4

# input

comment

0 1
6 -1.478704 0.321302 0.547681
6 -2.020726 -1.103399 0.758305
6 2.080194 1.690059 -0.285723
6 0.300534 -0.661692 -0.907397
6 0.033755 0.252832 0.315017
6 0.639770 1.681290 0.256857
6 -0.238911 2.746313 -0.456050
6 -1.366025 2.140751 -1.292795
6 -2.214044 1.097089 -0.563938
6 -3.534811 -1.117617 0.987429
6 2.973945 0.584338 0.299535
6 -0.814325 3.744676 0.559897
6 2.426034 -0.841909 0.074473
6 3.582472 -1.831464 -0.054124
8 1.693310 -0.884543 -1.147080
8 -0.366705 -1.937568 -0.839086
1 -1.650425 0.858809 1.492047
1 -1.566458 -1.524115 1.665806
1 2.067768 1.606019 -1.380114
1 2.540767 2.661884 -0.065833
1 -0.065515 -0.204338 -1.828357
1 0.750460 2.013248 1.301651
1 0.388637 3.338841 -1.135187
1 -0.925528 1.685289 -2.187217
1 -2.023396 2.930166 -1.679089
1 -3.083331 1.596204 -0.116244
1 -2.622085 0.414269 -1.319227
1 -3.867469 -2.114923 1.296878
1 -4.090261 -0.862045 0.079161
1 -3.817895 -0.414217 1.777319
1 3.140838 0.762858 1.368668
1 3.948176 0.687311 -0.195587
1 -1.406566 4.515108 0.054508
1 -0.007772 4.252162 1.100207
1 -1.457881 3.254124 1.296534
1 4.221683 -1.594042 -0.911233
1 4.191658 -1.851225 0.855822
1 3.200555 -2.847337 -0.210683
6 -1.626558 -2.049948 -0.363730
8 -2.364647 -2.945808 -0.761080
8 0.624692 -0.304177 1.518442
8 1.623154 -1.312874 1.164749




