%nprocshared=4

# input

comment

0 1
6 -1.421217 -0.376999 0.994039
6 -2.062479 -1.501420 0.152325
6 1.401438 2.072833 -0.367610
6 0.394511 -0.729842 -0.762800
6 -0.031669 0.093738 0.485160
6 0.062936 1.634586 0.268093
6 -1.164109 2.158212 -0.511499
6 -2.471706 1.871843 0.247543
6 -2.372385 0.783408 1.313271
6 -2.866367 -1.106795 -1.082014
6 2.647672 1.329657 0.139982
6 -1.090043 3.652701 -0.844787
6 2.561413 -0.202829 -0.021241
6 3.948880 -0.789560 -0.266394
8 1.754598 -0.516098 -1.154344
8 0.178262 -2.136066 -0.581566
1 -1.246548 -0.859422 1.970170
1 -2.773909 -2.005306 0.824533
1 1.345230 1.962310 -1.458559
1 1.553545 3.143998 -0.183968
1 -0.187239 -0.434429 -1.639452
1 0.051969 2.112307 1.260513
1 -1.211111 1.629928 -1.471859
1 -3.250174 1.617741 -0.480901
1 -2.835212 2.782069 0.742886
1 -2.015840 1.259186 2.237827
1 -3.374769 0.407405 1.551862
1 -3.150068 -1.993540 -1.660523
1 -2.316385 -0.448686 -1.756682
1 -3.794367 -0.602200 -0.796172
1 2.844147 1.594921 1.185866
1 3.492008 1.714647 -0.446506
1 -2.014884 3.987751 -1.327406
1 -0.271114 3.868687 -1.537717
1 -0.941959 4.252861 0.059286
1 4.393270 -0.398996 -1.188067
1 4.621177 -0.584479 0.573476
1 3.889221 -1.878962 -0.375462
6 -1.043733 -2.565267 -0.203719
8 -1.325909 -3.758883 -0.187426
8 0.869853 -0.125326 1.606910
8 2.052465 -0.847801 1.150770




