%nprocshared=4

# input

comment

0 1
6 4.046155 -1.179641 -0.550059
1 4.696559 -2.017332 -0.786916
6 2.988905 -1.307427 0.262796
1 2.759560 -2.260973 0.733672
6 2.121063 -0.151034 0.702863
6 4.390118 0.116848 -1.171515
6 3.439291 1.216401 -0.924745
6 2.365618 1.104428 -0.120031
6 1.329784 2.214124 -0.050076
1 0.827093 2.260271 -1.027378
1 1.828926 3.183797 0.067137
6 0.610334 -0.505983 0.653329
6 -0.390869 0.628067 1.016294
1 -0.761332 0.409625 2.025727
6 0.275522 2.026961 1.046080
1 -0.495323 2.796734 0.936458
1 0.726419 2.208679 2.025578
1 3.627698 2.130316 -1.484937
6 2.539333 0.073193 2.199183
1 2.370658 -0.851089 2.760392
1 1.973326 0.869135 2.684451
1 3.601782 0.326281 2.248763
8 0.315448 -1.787797 1.239009
8 5.382634 0.257540 -1.882098
6 -1.576151 0.580792 0.035297
1 -1.165302 0.807347 -0.964280
6 -2.228317 -0.818071 -0.091155
6 -1.238756 -1.778401 -0.762640
1 -1.177974 -1.560896 -1.837742
1 -1.571452 -2.820158 -0.678335
6 0.159164 -1.644454 -0.189364
1 0.926590 -2.173547 -0.757304
6 -2.773680 1.533569 0.234420
1 -2.527844 2.582102 0.039471
1 -3.152745 1.477556 1.263129
6 -3.824220 0.993564 -0.763626
1 -3.621571 1.432599 -1.753512
6 -3.481443 -0.502025 -0.917931
8 -4.114820 -1.298353 -1.577792
6 -2.759430 -1.403927 1.245360
1 -3.329772 -2.313898 1.029546
1 -3.428439 -0.711872 1.768470
1 -1.934598 -1.664748 1.910261
6 -5.296655 1.239933 -0.424252
1 -5.939784 0.735583 -1.151998
1 -5.530438 2.310128 -0.436043
1 -5.542729 0.851724 0.571071




