%nprocshared=4

# input

comment

0 1
6 -1.505498 0.280669 0.532121
6 -1.992717 -1.165590 0.746025
6 2.035066 1.762328 -0.228241
6 0.334024 -0.562271 -0.950473
6 0.012739 0.277357 0.297685
6 0.579811 1.724273 0.272565
6 -0.339072 2.782302 -0.424487
6 -1.418802 2.129616 -1.311055
6 -2.253515 1.034456 -0.602979
6 -3.502432 -1.294370 0.975148
6 2.942255 0.669450 0.365096
6 -0.958990 3.748032 0.600567
6 2.457941 -0.775613 0.089439
6 3.584377 -1.785487 -0.065755
8 1.696509 -0.797687 -1.131509
8 -0.332916 -1.840778 -0.972709
1 -1.667787 0.822547 1.473008
1 -1.478333 -1.531773 1.644790
1 2.055970 1.679644 -1.321523
1 2.461775 2.743570 0.015344
1 0.000572 -0.038196 -1.847849
1 0.607241 1.974911 1.340843
1 0.295372 3.386066 -1.087949
1 -0.934745 1.706324 -2.199526
1 -2.090350 2.907406 -1.694381
1 -3.161761 1.471971 -0.175766
1 -2.600011 0.316814 -1.357775
1 -3.764656 -2.334951 1.176977
1 -4.077372 -0.974667 0.100135
1 -3.809165 -0.681957 1.830849
1 3.049444 0.787804 1.448884
1 3.941918 0.780142 -0.070948
1 -1.540971 4.530476 0.099348
1 -0.182269 4.239915 1.197961
1 -1.629018 3.229428 1.296888
1 4.134928 -1.564155 -0.984311
1 4.267285 -1.731488 0.786816
1 3.168504 -2.793375 -0.138014
6 -1.519922 -2.112759 -0.353907
8 -2.099135 -3.129006 -0.651925
8 0.608473 -0.335235 1.477564
8 1.654799 -1.297394 1.130542




