%nprocshared=4

# input

comment

0 1
6 -1.409318 -0.460609 1.006580
6 -1.992191 -1.621493 0.151102
6 1.270417 2.141616 -0.368628
6 0.427582 -0.667333 -0.762576
6 -0.039729 0.097452 0.493878
6 -0.042869 1.639549 0.268072
6 -1.303656 2.093074 -0.508439
6 -2.594507 1.755980 0.284009
6 -2.412245 0.658241 1.351498
6 -2.814500 -1.263745 -1.107105
6 2.559666 1.489192 0.156827
6 -1.291186 3.584243 -0.877752
6 2.594903 -0.046673 -0.013514
6 3.975809 -0.614528 -0.297485
8 1.747765 -0.419060 -1.121247
8 0.296832 -2.093763 -0.600413
1 -1.143998 -0.936410 1.956885
1 -2.665652 -2.186392 0.803720
1 1.230922 1.992990 -1.454402
1 1.346444 3.222370 -0.207206
1 -0.181281 -0.369532 -1.620847
1 -0.098247 2.063086 1.280942
1 -1.322094 1.530654 -1.454170
1 -3.386590 1.489329 -0.423795
1 -2.946276 2.661932 0.794608
1 -2.060398 1.130586 2.276392
1 -3.381513 0.209627 1.602853
1 -3.131391 -2.186974 -1.602956
1 -2.262137 -0.665644 -1.838530
1 -3.715679 -0.708469 -0.831885
1 2.721709 1.715633 1.215764
1 3.404181 1.915503 -0.397187
1 -2.238169 3.863174 -1.354644
1 -0.485145 3.837426 -1.572977
1 -1.176831 4.208518 0.018040
1 4.301565 -0.282148 -1.287175
1 4.691820 -0.268399 0.453338
1 3.934523 -1.706415 -0.287236
6 -0.897320 -2.618692 -0.215221
8 -1.041385 -3.816607 -0.188237
8 0.894155 -0.134491 1.591603
8 2.150022 -0.727091 1.138669




