%nprocshared=4

# input

comment

0 1
1 2.810385 -2.777513 -0.638969
6 3.018092 -1.726994 -0.450251
6 3.582526 0.997769 0.063297
6 2.005923 -0.871009 -0.030731
6 4.312843 -1.223643 -0.627058
6 4.584692 0.121762 -0.368005
6 2.295847 0.482511 0.218134
1 5.108273 -1.884227 -0.960375
1 5.593778 0.502003 -0.502932
1 3.779727 2.042942 0.261039
6 0.563242 -1.169464 0.328562
6 -0.043562 0.265166 0.389919
1 -0.727310 0.348951 1.238097
7 1.114349 1.164091 0.597820
6 -0.738088 0.739751 -0.899440
1 0.062202 0.825054 -1.648080
6 -1.723369 -0.315643 -1.420972
1 -2.254433 0.081945 -2.294650
6 -0.860395 -1.528102 -1.827986
1 -0.057806 -1.212239 -2.503885
1 -1.444550 -2.281272 -2.367763
6 -0.264382 -2.149731 -0.562831
1 0.396211 -2.983703 -0.842094
7 -1.348802 -2.673660 0.316042
6 -1.001526 -2.395392 1.722505
1 -1.112372 -3.296087 2.339941
1 -1.666557 -1.627813 2.149198
6 0.446190 -1.889341 1.697676
1 1.152716 -2.727005 1.718012
1 0.687227 -1.233977 2.540944
6 0.902891 2.531195 0.526983
8 1.804521 3.356996 0.510583
6 -1.302199 2.173641 -0.719181
1 -1.085926 2.732591 -1.634361
6 -0.581564 2.900575 0.453295
1 -1.053188 2.623865 1.404587
1 -0.655241 3.984272 0.350313
8 -2.725249 2.248025 -0.661458
6 -2.727681 -0.739108 -0.342741
6 -3.426296 0.111351 0.419992
6 -3.420098 1.619265 0.402733
1 -4.451073 1.985737 0.311799
1 -3.062174 1.983965 1.382147
1 -4.082321 -0.301606 1.189214
6 -2.707083 -2.229033 -0.058929
1 -3.385816 -2.486998 0.759466
1 -3.040772 -2.805221 -0.931508




