%nprocshared=4

# input

comment

0 1
6 -1.357387 0.889227 0.663784
6 -2.489160 -0.157499 0.693314
6 2.490710 0.597145 0.933926
6 -0.070305 -0.534976 -0.916273
6 0.002858 0.199171 0.432850
6 1.140014 1.251414 0.553869
6 1.060303 2.284074 -0.596633
6 -0.329460 2.962918 -0.502254
6 -1.536902 2.007704 -0.392116
6 -3.899200 0.432790 0.811731
6 2.922030 -0.680933 0.199706
6 2.164868 3.347835 -0.532408
6 1.809607 -1.712449 -0.054465
6 2.352579 -3.098278 -0.385994
8 1.064602 -1.273683 -1.205377
8 -1.198574 -1.430431 -1.000988
1 -1.316882 1.360611 1.655185
1 -2.303810 -0.773842 1.583870
1 3.293204 1.338101 0.854174
1 2.416467 0.347848 1.996330
1 -0.185474 0.173051 -1.737461
1 0.872552 1.827817 1.453183
1 1.152975 1.776348 -1.566639
1 -0.477391 3.629074 -1.361647
1 -0.316049 3.611386 0.386568
1 -2.425661 2.595019 -0.137054
1 -1.753227 1.561682 -1.372373
1 -3.961571 1.102967 1.676763
1 -4.629916 -0.368950 0.935963
1 -4.182167 0.997136 -0.082477
1 3.717551 -1.157280 0.785161
1 3.345797 -0.453428 -0.785106
1 1.992735 4.125884 -1.285369
1 3.156288 2.923684 -0.721568
1 2.188981 3.836611 0.450287
1 2.999466 -3.023874 -1.265164
1 2.929816 -3.496708 0.452409
1 1.521814 -3.769710 -0.612829
6 -2.417817 -1.168308 -0.449674
8 -3.369539 -1.809728 -0.824487
8 0.180901 -0.763691 1.488113
8 0.936119 -1.957770 1.035441




