%nprocshared=4

# input

comment

0 1
1 -0.831791 -2.090211 1.215520
6 -1.585173 -1.804478 0.478401
1 -1.530391 -2.573899 -0.298272
6 -2.983647 -1.880986 1.125347
1 -3.255869 -2.914672 1.354836
1 -2.995412 -1.308466 2.062733
6 -3.844164 0.205837 -0.124512
6 -2.365674 0.655753 0.171298
6 -1.258815 -0.411496 -0.171934
6 -4.005469 -1.298202 0.169870
8 -4.892781 -1.966579 -0.327836
6 -4.794441 0.910018 0.884829
1 -4.552304 0.654687 1.923404
1 -5.831609 0.615307 0.696157
1 -4.726861 1.998811 0.783701
6 -4.353572 0.518050 -1.545015
1 -3.696244 0.124171 -2.323996
1 -4.449802 1.597596 -1.697357
1 -5.336331 0.060321 -1.681870
6 -2.031609 2.037469 -0.432436
1 -2.088800 1.991953 -1.525472
1 -2.789355 2.766907 -0.121961
6 0.100677 0.155787 0.388347
6 -0.641872 2.547921 -0.021252
1 -0.644488 2.830419 1.040003
1 -0.404318 3.464696 -0.575482
6 0.457499 1.507624 -0.280011
1 -2.323538 0.781801 1.260940
6 -1.146624 -0.661800 -1.698192
1 -0.268083 -1.278335 -1.907393
1 -1.069324 0.249341 -2.295776
1 -2.022322 -1.212264 -2.054213
6 0.161729 0.252858 1.924776
1 1.184050 0.473662 2.242589
1 -0.132688 -0.683975 2.402007
1 -0.479551 1.047055 2.312453
1 0.496170 1.319477 -1.359666
8 1.112053 -0.845369 0.009637
6 2.387016 -0.437844 -0.019002
6 2.838637 0.840374 0.053242
6 1.858756 1.979302 0.132074
1 2.200411 2.784114 -0.529198
1 1.852531 2.415566 1.141248
8 3.189012 -1.522628 -0.141936
6 4.550412 -1.341299 -0.195735
6 5.261724 -2.647688 -0.340826
1 5.028870 -3.311602 0.500115
1 6.341869 -2.490357 -0.377236
1 4.947801 -3.159777 -1.258136
6 5.099725 -0.113786 -0.119052
1 6.176742 0.003345 -0.161380
6 4.277211 1.096437 0.011248
8 4.755051 2.232729 0.070500




