%nprocshared=4

# input

comment

0 1
6 -1.384419 0.800760 0.684520
6 -2.453070 -0.307901 0.710187
6 2.483079 0.752851 0.861641
6 -0.083938 -0.615298 -0.869546
6 0.000405 0.164618 0.457862
6 1.071268 1.281179 0.544818
6 0.900712 2.293517 -0.606421
6 -0.508577 2.922311 -0.494658
6 -1.658280 1.914970 -0.353033
6 -3.869245 0.252443 0.862809
6 2.946949 -0.528770 0.180592
6 1.946426 3.411740 -0.598947
6 1.877722 -1.604695 -0.055956
6 2.572535 -2.920005 -0.421188
8 1.141651 -1.232395 -1.214558
8 -1.130875 -1.599343 -0.886280
1 -1.395337 1.267403 1.680655
1 -2.270129 -0.939270 1.590937
1 3.242641 1.529071 0.725366
1 2.508738 0.549591 1.943217
1 -0.302628 0.042665 -1.714211
1 0.841979 1.855625 1.459129
1 0.990104 1.783511 -1.571833
1 -0.699912 3.558259 -1.367849
1 -0.533208 3.587582 0.379260
1 -2.559153 2.471503 -0.067609
1 -1.875991 1.483579 -1.336698
1 -3.924098 0.961162 1.695532
1 -4.582433 -0.554213 1.067238
1 -4.208242 0.756131 -0.048631
1 3.753475 -0.942448 0.800182
1 3.397957 -0.255239 -0.782620
1 1.702072 4.176522 -1.344362
1 2.939001 3.026547 -0.851412
1 2.002845 3.899918 0.379686
1 3.214452 -2.806252 -1.301590
1 3.170675 -3.300810 0.413663
1 1.829235 -3.689602 -0.661900
6 -2.372494 -1.254158 -0.478256
8 -3.363307 -1.775249 -0.979267
8 0.298819 -0.721849 1.551044
8 1.046653 -1.901491 1.074975




