%nprocshared=4

# input

comment

0 1
1 -0.971403 -2.137644 1.273472
6 -1.675210 -1.829207 0.496822
1 -1.582550 -2.618543 -0.262240
6 -3.079139 -1.904943 1.075626
1 -3.361799 -2.950008 1.242818
1 -3.142470 -1.395159 2.042791
6 -3.884787 0.231051 -0.137238
6 -2.404694 0.649783 0.190914
6 -1.305780 -0.439609 -0.130821
6 -4.059908 -1.269533 0.123453
8 -4.984090 -1.922637 -0.360282
6 -4.852268 0.947413 0.832353
1 -4.615962 0.718311 1.877908
1 -5.888157 0.628299 0.665388
1 -4.816850 2.034623 0.709122
6 -4.342880 0.564451 -1.568414
1 -3.720949 0.092295 -2.330551
1 -4.342871 1.643877 -1.753011
1 -5.368176 0.217731 -1.746728
6 -2.027057 2.040528 -0.372082
1 -2.077078 2.040519 -1.466231
1 -2.750106 2.790978 -0.032515
6 0.111930 0.079208 0.403835
6 -0.630145 2.503615 0.043033
1 -0.631637 2.758082 1.109279
1 -0.390994 3.431627 -0.490876
6 0.433684 1.446712 -0.257688
1 -2.384744 0.770287 1.282493
6 -1.215639 -0.704038 -1.666161
1 -0.347112 -1.323427 -1.916396
1 -1.142471 0.210157 -2.258944
1 -2.089554 -1.253760 -2.029871
6 0.154013 0.173779 1.956938
1 1.130819 0.513869 2.316505
1 0.020262 -0.801313 2.432634
1 -0.591652 0.856156 2.369304
1 0.464369 1.307681 -1.347239
8 1.104431 -0.901289 0.023243
6 2.428711 -0.505187 -0.034854
6 2.804410 0.784960 0.030579
6 1.839722 1.924363 0.116208
1 2.133141 2.725355 -0.573873
1 1.861374 2.350891 1.125956
8 3.346647 -1.538711 -0.155975
6 4.699923 -1.259449 -0.205456
6 5.567037 -2.469954 -0.338834
1 5.411252 -3.142132 0.511053
1 6.630586 -2.212078 -0.373994
1 5.321160 -3.011721 -1.257762
6 5.186758 -0.015078 -0.138250
1 6.241707 0.221359 -0.173751
6 4.247454 1.109446 -0.008414
8 4.661144 2.260615 0.066260




